(declare-const rvalue_sieve (_ BitVec 32))
(declare-const lvalue_sieve (_ BitVec 32))
(declare-const rreturn (_ BitVec 32))
(declare-const lreturn (_ BitVec 32))
(assert (and (= rreturn rvalue_sieve) (= lreturn lvalue_sieve)))